GLPSOL--GLPK LP/MIP Solver 5.0
Parameter(s) specified in the command line:
 --lp ../modeles/3_84.lp --log 3_84.log
Reading problem data from '../modeles/3_84.lp'...
265 rows, 510 columns, 1773 non-zeros
252 integer variables, all of which are binary
784 lines were read
GLPK Integer Optimizer 5.0
265 rows, 510 columns, 1773 non-zeros
252 integer variables, all of which are binary
Preprocessing...
246 constraint coefficient(s) were reduced
265 rows, 507 columns, 1770 non-zeros
252 integer variables, all of which are binary
Scaling...
 A: min|aij| =  2.268e-03  max|aij| =  4.000e+00  ratio =  1.764e+03
GM: min|aij| =  1.543e-01  max|aij| =  6.481e+00  ratio =  4.200e+01
EQ: min|aij| =  2.381e-02  max|aij| =  1.000e+00  ratio =  4.200e+01
2N: min|aij| =  1.814e-02  max|aij| =  1.723e+00  ratio =  9.496e+01
Constructing initial basis...
Size of triangular part is 265
Solving LP relaxation...
GLPK Simplex Optimizer 5.0
265 rows, 507 columns, 1770 non-zeros
      0: obj =   6.000000000e+00 inf =   1.450e+01 (7)
     38: obj =   2.954868010e-01 inf =   0.000e+00 (0)
*   112: obj =  -1.731428571e+00 inf =   2.056e-16 (0)
OPTIMAL LP SOLUTION FOUND
Integer optimization begins...
Long-step dual simplex will be used
+   112: mip =     not found yet >=              -inf        (1; 0)
+   113: >>>>>  -1.731428571e+00 >=  -1.731428571e+00   0.0% (2; 0)
+   113: mip =  -1.731428571e+00 >=     tree is empty   0.0% (0; 3)
INTEGER OPTIMAL SOLUTION FOUND
Time used:   0.0 secs
Memory used: 0.7 Mb (779729 bytes)
